NAME: rand_1/map4_72
TYPE: TSP
COMMENT: autogenerated using a wonderful map creator
DIMENSION: 96
EDGE_WEIGHT_TYPE: EUC_2D
NODE_COORD_SECTION
1 78.0 2.0
2 3.0 7.0
3 79.0 8.0
4 2.0 5.0
5 1.0 9.0
6 1.0 1.0
7 80.0 1.0
8 81.0 2.0
9 2.0 9.0
10 3.0 2.0
11 1.0 5.0
12 80.0 5.0
13 81.0 8.0
14 82.0 5.0
15 82.0 3.0
16 80.0 7.0
17 4.0 2.0
18 79.0 7.0
19 81.0 4.0
20 78.0 4.0
21 4.0 7.0
22 1.0 3.0
23 2.0 8.0
24 82.0 2.0
25 4.0 6.0
26 79.0 6.0
27 4.0 5.0
28 5.0 2.0
29 4.0 9.0
30 5.0 6.0
31 2.0 1.0
32 78.0 7.0
33 78.0 5.0
34 1.0 8.0
35 3.0 3.0
36 5.0 3.0
37 79.0 1.0
38 2.0 7.0
39 78.0 1.0
40 4.0 3.0
41 5.0 8.0
42 82.0 6.0
43 5.0 5.0
44 1.0 2.0
45 82.0 1.0
46 80.0 4.0
47 2.0 3.0
48 3.0 9.0
49 62.0 8.0
50 53.0 5.0
51 55.0 2.0
52 47.0 7.0
53 42.0 2.0
54 9.0 8.0
55 68.0 2.0
56 57.0 2.0
57 13.0 8.0
58 15.0 5.0
59 26.0 5.0
60 70.0 2.0
61 17.0 5.0
62 19.0 2.0
63 52.0 8.0
64 43.0 5.0
65 21.0 2.0
66 56.0 5.0
67 27.0 8.0
68 60.0 5.0
69 38.0 2.0
70 62.0 5.0
71 64.0 2.0
72 22.0 5.0
73 68.0 8.0
74 44.0 8.0
75 25.0 4.0
76 39.0 5.0
77 14.0 3.0
78 58.0 3.0
79 74.0 8.0
80 61.0 8.0
81 32.0 2.0
82 45.0 2.0
83 23.0 8.0
84 14.0 5.0
85 60.0 2.0
86 25.0 8.0
87 18.0 2.0
88 73.0 2.0
89 31.0 5.0
90 75.0 2.0
91 13.0 2.0
92 35.0 2.0
93 24.0 2.0
94 46.0 8.0
95 48.0 5.0
96 70.0 8.0
97 41.0 2.0
98 65.0 5.0
99 54.0 2.0
100 21.0 8.0
101 12.0 5.0
102 14.0 2.0
103 67.0 5.0
104 40.0 5.0
105 31.0 2.0
106 29.0 5.0
107 58.0 4.0
108 69.0 4.0
109 11.0 8.0
110 57.0 5.0
111 26.0 8.0
112 15.0 8.0
113 59.0 5.0
114 50.0 2.0
115 63.0 2.0
116 12.0 2.0
117 47.0 5.0
118 36.0 5.0
119 51.0 5.0
120 40.0 2.0
START_DEPOT_SECTION
1
2
3
4
5
6
7
8
9
10
11
12
13
14
15
16
17
18
19
20
21
22
23
24
-1
END_DEPOT_SECTION
25
26
27
28
29
30
31
32
33
34
35
36
37
38
39
40
41
42
43
44
45
46
47
48
-1
EOF
